 Code  2531
 Dimension, Fixed Cost
   100        3000
 Facility, Client, Transportation Cost
     1       12           0
     1       20           4
     1       21           1
     1       27           3
     1       47           3
     1       78           4
     1       83           0
     1       93           0
     1       94           2
     1       96           4
     2        5           4
     2       10           1
     2       17           0
     2       22           2
     2       38           1
     2       52           4
     2       55           2
     2       62           0
     2       76           1
     2       95           1
     3       10           4
     3       21           0
     3       23           2
     3       25           0
     3       28           2
     3       35           0
     3       45           3
     3       59           3
     3       60           0
     3       75           3
     4        3           0
     4       17           0
     4       19           3
     4       26           0
     4       45           1
     4       57           3
     4       64           1
     4       68           1
     4       72           4
     4       87           3
     5        5           2
     5       18           4
     5       37           2
     5       55           0
     5       76           3
     5       78           3
     5       79           2
     5       82           4
     5       91           0
     5       99           1
     6        3           1
     6       13           3
     6       20           4
     6       32           3
     6       35           4
     6       37           0
     6       78           4
     6       87           1
     6       89           3
     6       90           0
     7        9           3
     7       20           3
     7       27           0
     7       29           0
     7       30           2
     7       31           0
     7       43           2
     7       62           1
     7       72           1
     7       80           2
     8       18           0
     8       20           4
     8       22           2
     8       27           2
     8       31           0
     8       36           1
     8       60           2
     8       62           2
     8       64           2
     8       89           0
     9       16           4
     9       29           1
     9       32           0
     9       39           1
     9       42           1
     9       46           2
     9       51           3
     9       74           1
     9       85           3
     9       93           0
    10        6           1
    10       15           4
    10       30           2
    10       50           1
    10       57           4
    10       72           1
    10       89           1
    10       90           4
    10       91           0
    10       95           0
    11        1           2
    11        4           4
    11       12           3
    11       15           1
    11       30           2
    11       36           2
    11       47           2
    11       81           3
    11       87           1
    11       97           3
    12        9           0
    12       10           4
    12       11           1
    12       12           2
    12       16           2
    12       30           0
    12       58           4
    12       64           4
    12       88           2
    12       95           2
    13       21           0
    13       31           0
    13       38           4
    13       50           2
    13       63           3
    13       69           2
    13       71           0
    13       77           1
    13       89           2
    13       92           3
    14        2           1
    14       13           3
    14       20           2
    14       30           0
    14       48           0
    14       53           1
    14       72           3
    14       79           2
    14       90           1
    14       92           2
    15        3           3
    15       17           1
    15       25           3
    15       53           3
    15       54           1
    15       62           1
    15       65           3
    15       77           4
    15       80           1
    15       85           2
    16        4           3
    16       16           3
    16       22           0
    16       28           3
    16       47           3
    16       61           4
    16       78           1
    16       86           1
    16       94           4
    16      100           1
    17        3           1
    17       10           0
    17       16           3
    17       18           4
    17       29           2
    17       42           4
    17       45           3
    17       48           2
    17       71           0
    17       74           1
    18       13           1
    18       45           4
    18       51           1
    18       53           0
    18       64           3
    18       71           0
    18       74           2
    18       78           0
    18       84           3
    18       90           1
    19       12           4
    19       20           0
    19       32           3
    19       40           4
    19       41           4
    19       44           2
    19       54           2
    19       74           4
    19       77           2
    19       78           0
    20        1           4
    20        3           3
    20       10           3
    20       12           3
    20       27           0
    20       30           3
    20       46           3
    20       57           4
    20       78           2
    20       94           2
    21       10           3
    21       24           4
    21       33           4
    21       48           1
    21       62           0
    21       64           4
    21       74           1
    21       82           3
    21       87           4
    21       89           4
    22       16           4
    22       31           2
    22       40           2
    22       48           3
    22       58           0
    22       63           0
    22       73           2
    22       79           4
    22       88           2
    22       91           4
    23        3           3
    23       15           3
    23       24           1
    23       32           3
    23       35           0
    23       36           0
    23       40           1
    23       52           0
    23       82           0
    23       86           3
    24       11           1
    24       15           3
    24       41           0
    24       44           0
    24       49           3
    24       55           1
    24       67           1
    24       85           3
    24       88           2
    24       98           1
    25       18           1
    25       33           2
    25       34           0
    25       36           4
    25       52           2
    25       68           2
    25       70           4
    25       80           1
    25       82           3
    25      100           4
    26        2           4
    26        7           3
    26       15           4
    26       22           2
    26       32           0
    26       61           2
    26       66           0
    26       72           4
    26       83           1
    26       86           3
    27        7           1
    27        9           0
    27       22           1
    27       45           4
    27       54           2
    27       55           3
    27       60           1
    27       74           0
    27       89           3
    27       98           4
    28       12           1
    28       37           3
    28       42           2
    28       43           3
    28       58           2
    28       60           1
    28       66           4
    28       77           4
    28       84           3
    28       87           1
    29       11           1
    29       16           2
    29       22           1
    29       43           0
    29       50           4
    29       57           2
    29       59           0
    29       61           3
    29       83           1
    29       99           4
    30       10           3
    30       15           0
    30       29           1
    30       49           2
    30       55           4
    30       74           0
    30       76           4
    30       78           3
    30       89           2
    30       97           1
    31        2           1
    31        6           2
    31       15           4
    31       17           0
    31       22           1
    31       46           3
    31       55           0
    31       63           0
    31       89           0
    31       93           4
    32        3           2
    32       11           4
    32       15           0
    32       16           4
    32       36           4
    32       46           1
    32       48           2
    32       65           1
    32       77           3
    32       93           1
    33        7           4
    33       16           1
    33       38           4
    33       41           0
    33       42           2
    33       49           4
    33       57           4
    33       69           2
    33       78           3
    33       95           4
    34        1           1
    34       19           4
    34       43           0
    34       61           4
    34       67           2
    34       77           0
    34       83           4
    34       96           1
    34       99           3
    34      100           3
    35        1           4
    35        5           4
    35       10           2
    35       26           2
    35       34           3
    35       37           3
    35       43           0
    35       64           3
    35       70           3
    35       98           1
    36        2           1
    36       13           3
    36       14           1
    36       19           0
    36       32           3
    36       37           3
    36       39           0
    36       71           0
    36       86           1
    36       96           1
    37       34           4
    37       35           3
    37       47           1
    37       48           3
    37       55           4
    37       67           3
    37       79           4
    37       91           0
    37       98           3
    37       99           0
    38        1           4
    38       26           1
    38       30           2
    38       40           2
    38       47           0
    38       67           2
    38       71           4
    38       74           3
    38       78           0
    38       91           4
    39       10           4
    39       24           3
    39       32           4
    39       38           4
    39       65           2
    39       73           4
    39       77           3
    39       82           4
    39       98           2
    39       99           4
    40        1           4
    40        7           3
    40        9           1
    40       14           2
    40       32           4
    40       40           4
    40       44           0
    40       47           0
    40       53           0
    40       88           2
    41        1           3
    41       28           2
    41       31           0
    41       37           3
    41       43           4
    41       45           1
    41       59           1
    41       68           0
    41       74           3
    41       95           1
    42       21           4
    42       23           4
    42       36           1
    42       44           4
    42       48           0
    42       61           3
    42       62           4
    42       79           2
    42       82           3
    42       87           3
    43       11           4
    43       15           2
    43       39           1
    43       42           2
    43       59           4
    43       64           4
    43       69           4
    43       78           1
    43       92           2
    43      100           4
    44       11           3
    44       22           0
    44       28           0
    44       38           2
    44       39           1
    44       52           0
    44       65           2
    44       85           1
    44       87           3
    44       98           2
    45       10           3
    45       11           1
    45       35           4
    45       36           3
    45       43           4
    45       54           4
    45       60           2
    45       70           2
    45       72           1
    45       87           0
    46        9           2
    46       16           0
    46       24           3
    46       29           0
    46       34           4
    46       35           2
    46       38           1
    46       51           1
    46       58           1
    46       87           3
    47       16           1
    47       35           4
    47       48           1
    47       61           2
    47       62           3
    47       77           2
    47       80           4
    47       90           3
    47       93           3
    47       98           2
    48        6           1
    48       39           1
    48       40           3
    48       56           2
    48       61           4
    48       67           1
    48       78           1
    48       84           4
    48       88           3
    48       99           4
    49       25           3
    49       30           4
    49       39           2
    49       40           3
    49       41           2
    49       57           1
    49       63           0
    49       70           1
    49       97           0
    49       98           4
    50        6           1
    50       25           4
    50       26           4
    50       60           2
    50       64           3
    50       66           3
    50       67           1
    50       71           2
    50       94           1
    50       98           3
    51       18           2
    51       20           4
    51       29           4
    51       31           4
    51       38           0
    51       41           3
    51       56           0
    51       75           1
    51       84           2
    51       90           0
    52       10           3
    52       18           0
    52       30           3
    52       50           3
    52       64           2
    52       80           2
    52       83           1
    52       87           2
    52       95           4
    52      100           3
    53        1           4
    53        2           2
    53        3           4
    53       13           0
    53       16           4
    53       69           3
    53       71           4
    53       79           0
    53       82           4
    53       83           0
    54       10           3
    54       15           3
    54       16           1
    54       27           1
    54       28           0
    54       47           4
    54       48           3
    54       60           2
    54       68           2
    54       78           3
    55       18           0
    55       35           0
    55       49           2
    55       52           4
    55       54           3
    55       57           0
    55       58           4
    55       62           0
    55       71           1
    55       88           4
    56       28           0
    56       30           1
    56       51           0
    56       53           0
    56       68           3
    56       75           2
    56       79           3
    56       84           2
    56       85           2
    56       93           1
    57       27           0
    57       51           3
    57       53           1
    57       56           3
    57       60           2
    57       61           4
    57       83           3
    57       86           0
    57       90           3
    57       91           3
    58        3           3
    58       19           4
    58       25           0
    58       39           0
    58       46           2
    58       66           2
    58       76           1
    58       84           1
    58       98           0
    58       99           3
    59       17           2
    59       18           1
    59       23           3
    59       26           1
    59       50           0
    59       51           0
    59       63           1
    59       64           1
    59       80           2
    59       99           0
    60        9           0
    60       17           4
    60       29           2
    60       46           4
    60       47           2
    60       54           3
    60       66           0
    60       68           3
    60       79           0
    60       96           1
    61       14           3
    61       26           3
    61       44           3
    61       48           4
    61       53           4
    61       64           1
    61       72           3
    61       82           0
    61       92           0
    61       98           2
    62        2           3
    62       13           4
    62       24           4
    62       33           3
    62       38           4
    62       40           2
    62       42           0
    62       60           4
    62       61           2
    62       89           0
    63       15           3
    63       17           1
    63       20           2
    63       25           1
    63       38           3
    63       72           0
    63       76           2
    63       84           3
    63       88           0
    63      100           3
    64       21           2
    64       24           0
    64       26           0
    64       36           4
    64       54           0
    64       65           1
    64       75           4
    64       76           0
    64       83           4
    64       98           2
    65        6           0
    65       24           2
    65       27           0
    65       58           0
    65       67           1
    65       70           0
    65       72           2
    65       75           3
    65       81           4
    65       98           4
    66        1           4
    66        2           3
    66        9           4
    66       29           3
    66       40           2
    66       41           1
    66       56           1
    66       57           1
    66       58           0
    66       89           4
    67       13           4
    67       24           2
    67       29           2
    67       31           0
    67       33           3
    67       57           3
    67       84           0
    67       93           4
    67       99           2
    67      100           0
    68        7           4
    68       16           4
    68       37           3
    68       39           3
    68       49           3
    68       50           3
    68       56           3
    68       63           2
    68       65           0
    68       95           2
    69        3           4
    69       20           3
    69       26           3
    69       49           1
    69       66           2
    69       69           3
    69       72           1
    69       80           2
    69       83           0
    69      100           4
    70       14           1
    70       15           2
    70       18           1
    70       20           1
    70       22           0
    70       28           1
    70       48           4
    70       50           0
    70       63           3
    70       78           1
    71       17           1
    71       46           3
    71       47           2
    71       55           3
    71       57           1
    71       58           3
    71       61           4
    71       65           1
    71       70           0
    71       82           3
    72       22           3
    72       28           0
    72       33           0
    72       41           4
    72       43           1
    72       63           0
    72       84           2
    72       92           3
    72       96           0
    72       99           1
    73        5           4
    73       16           0
    73       20           3
    73       22           3
    73       30           0
    73       33           4
    73       54           0
    73       55           3
    73       88           2
    73       92           1
    74        1           3
    74        4           1
    74        8           0
    74       18           0
    74       32           4
    74       37           3
    74       43           1
    74       48           4
    74       92           4
    74       97           0
    75        2           2
    75        6           2
    75       23           0
    75       26           3
    75       36           3
    75       39           0
    75       49           4
    75       64           4
    75       67           0
    75       92           2
    76        3           2
    76        5           0
    76       11           4
    76       36           0
    76       54           4
    76       58           2
    76       63           2
    76       73           0
    76       84           0
    76      100           0
    77       11           2
    77       27           2
    77       54           2
    77       57           4
    77       67           4
    77       69           1
    77       70           4
    77       73           1
    77       74           3
    77       88           2
    78        5           1
    78       10           3
    78       22           2
    78       27           1
    78       32           0
    78       64           0
    78       65           1
    78       66           1
    78       84           4
    78       94           4
    79       19           1
    79       29           2
    79       51           3
    79       52           3
    79       59           0
    79       64           2
    79       65           0
    79       72           0
    79       83           1
    79       90           2
    80        4           2
    80        9           1
    80       10           1
    80       33           0
    80       44           3
    80       48           0
    80       52           2
    80       63           4
    80       71           4
    80       86           2
    81       11           4
    81       28           1
    81       39           0
    81       47           1
    81       68           2
    81       70           2
    81       71           3
    81       94           1
    81       95           2
    81       98           4
    82       10           3
    82       19           3
    82       20           3
    82       25           0
    82       27           3
    82       39           2
    82       46           4
    82       56           0
    82       60           1
    82       70           2
    83        9           4
    83       12           0
    83       17           0
    83       18           0
    83       28           0
    83       30           4
    83       56           0
    83       59           3
    83       83           3
    83       87           0
    84       12           3
    84       16           4
    84       24           1
    84       28           0
    84       29           1
    84       37           3
    84       39           3
    84       40           4
    84       69           3
    84       92           2
    85       10           0
    85       12           0
    85       26           0
    85       70           1
    85       71           0
    85       84           3
    85       88           2
    85       94           1
    85       96           3
    85       97           4
    86       27           2
    86       29           1
    86       32           3
    86       35           3
    86       40           4
    86       42           1
    86       52           0
    86       65           0
    86       73           0
    86       87           2
    87       35           2
    87       49           0
    87       54           0
    87       57           4
    87       59           2
    87       62           0
    87       67           4
    87       75           4
    87       95           0
    87       97           3
    88        1           1
    88        5           3
    88       14           3
    88       23           0
    88       27           2
    88       40           1
    88       49           0
    88       63           2
    88       76           4
    88       89           2
    89       32           3
    89       39           1
    89       53           0
    89       55           2
    89       57           1
    89       63           2
    89       67           1
    89       69           0
    89       96           4
    89      100           2
    90       15           2
    90       23           4
    90       49           0
    90       58           0
    90       62           2
    90       70           1
    90       73           4
    90       75           0
    90       78           1
    90       85           3
    91        8           0
    91       12           2
    91       25           1
    91       34           2
    91       43           4
    91       63           2
    91       81           0
    91       88           3
    91       95           2
    91       99           0
    92        4           3
    92       11           0
    92       15           4
    92       19           2
    92       24           3
    92       39           2
    92       51           4
    92       71           0
    92       79           2
    92      100           4
    93        2           0
    93        7           4
    93        8           2
    93       13           1
    93       27           0
    93       41           0
    93       55           1
    93       57           0
    93       64           0
    93       80           1
    94        2           2
    94        9           3
    94       11           3
    94       24           4
    94       28           3
    94       48           0
    94       65           0
    94       68           3
    94       89           2
    94       93           4
    95        1           0
    95       19           3
    95       31           2
    95       36           4
    95       44           1
    95       53           1
    95       62           3
    95       65           0
    95       83           3
    95       89           4
    96       16           2
    96       18           3
    96       21           1
    96       46           1
    96       57           1
    96       58           0
    96       59           0
    96       62           3
    96       74           0
    96       91           3
    97       15           4
    97       16           0
    97       22           1
    97       34           1
    97       41           2
    97       45           2
    97       63           3
    97       69           2
    97       78           0
    97       85           2
    98       11           0
    98       14           1
    98       19           2
    98       27           2
    98       31           4
    98       33           1
    98       34           3
    98       44           0
    98       53           3
    98       77           2
    99        4           1
    99        7           2
    99       25           3
    99       32           2
    99       53           0
    99       64           0
    99       85           4
    99       95           2
    99       97           3
    99       98           0
   100        1           1
   100        9           2
   100       27           0
   100       62           3
   100       67           4
   100       68           2
   100       77           1
   100       85           2
   100       87           1
   100       90           3
